Your name: Michael
Dealer is on your left
Score at start:
Your Score      Their Score
 13              37

Cards dealt:
KS 5S 4S 5H KC 7C 5C 3C AD KD QD TD 6D 


Bid history:
Richard bid 2.
Doris bid 3.


Cards in hand:
KS 5S 4S 5H KC 7C 5C 3C AD KD QD TD 6D 

Expert response:
3
Expert alternative response:
2 4

#March 2022:
# Monte prefers bidding 4 over 3 by almost 2 points.
# I'll add it as an option