Your name: Michael2022-3
Dealer is on your left
Score at start:
Your Score      Their Score
 813             868

Cards dealt:
KS 9S 8S 5S 4S KH 6H 9C 8C AD QD JD 2D 


Bid history:
Richard bid 2.
Doris bid 1.


Cards in hand:
KS 9S 8S 5S 4S KH 6H 9C 8C AD QD JD 2D 


Expert response:
5
Expert alternative response:
4 6

# Sept 2022:
# Monte prefers 5 over 4 by 4 points
# And over 3 % WP
# They are both good options.
# WP Monte even prefers the agro 6 over 4...
# (I initially thought of bidding 4)