Your name: Michael2022-3
Dealer is on your left
Score at start:
Your Score      Their Score
 739             622

Cards dealt:
AS KS JS 9S 8S 6S AH JH 8H 7H 2H 3C 6D 


Bid history:
Richard bid 2.
Doris bid mellow.


Cards in hand:
AS KS JS 9S 8S 6S AH JH 8H 7H 2H 3C 6D 


Expert response:
4
Expert alternative response:
5 6

# April 2022:
# I liked to say 4 or 5, but monte likes 6 and 7 more
# I'll add 6 as an option. (Monte: 6 is better than 5 by 4 points)