Your name: Michael2022-3
Dealer is on your left
Score at start:
Your Score      Their Score
 577             692

Cards dealt:
QS 9S 5S AH 2H AC JC TC 9C 5C AD QD TD 


Bid history:
Richard bid 2.
Doris bid 1.


Cards in hand:
QS 9S 5S AH 2H AC JC TC 9C 5C AD QD TD 


Expert response:
4
Expert alternative response:
5 3 

#Sept 2022:
# Monte agrees with saying 4,
# but prefers saying 5 over 3.
# I'll add 5 as an option
# Also: WP monte prefers 5 over 4 by 0.4 %
