Your name: Michael2022-3
Dealer is on your left
Score at start:
Your Score      Their Score
 448             555

Cards dealt:
JS 5S 3S 9H 5H 3H 2H KC TC 7C AD QD 5D 


Bid history:
Richard bid 3.
Doris bid 1.


Cards in hand:
JS 5S 3S 9H 5H 3H 2H KC TC 7C AD QD 5D 


Expert response:
2
Expert alternative response:
1 3


#April 2022:
# Monte agrees to bid 2 but then wants to bid 3 as an alt by 2 points
# bidding 1 is 8 points lower than 2. I'll add 3 as an option
