Your name: Michael2022-3
Dealer is your partner opposite you.
Score at start:
Your Score      Their Score
 500             597

Cards dealt:
9S 8S 6S 3S 8H 4H AC 9C 4C 3C 2C QD JD 


Bid history:
Doris bid 3.


Cards in hand:
9S 8S 6S 3S 8H 4H AC 9C 4C 3C 2C QD JD 


Expert response:
2
Expert alternative response:
3 1

#April 2022:
# Monte agrees to bid 2, but then wants to bid 1 as an alt by 3 points.
# Bidding 3 is 4 points lower than 2. I'll add 1 as an option.