Your name: Michael2022-3
Dealer is on your right
Score at start:
Your Score      Their Score
 374             432

Cards dealt:
AS 7S 4S 3S 2S KH JH 7H 3H TC 7C 8D 4D 


Bid history:


Cards in hand:
AS 7S 4S 3S 2S KH JH 7H 3H TC 7C 8D 4D 


Expert response:
3
Expert alternative response:
2 4



#April 2022:
# Monte wants to bid 4 over 3 by 0.8 points.
# I'll add it as an option