Your name: Michael2022-3
Dealer is your partner opposite you.
Score at start:
Your Score      Their Score
 790             731

Cards dealt:
KS JS 9S 8S KH QH QC JC 6C 3C JD 6D 2D 


Bid history:
Doris bid 1.


Cards in hand:
KS JS 9S 8S KH QH QC JC 6C 3C JD 6D 2D 


Expert response:
3
Expert alternative response:
2 4

# April 2022:
# Monte likes bidding 4 then 3 by 1 point.
# Maybe because LHS bid 1?
# I'll add 4 as an option